Maximize
  250 x_washing_machine + 375 x_freezers
Subject To
  c1: 30 x_washing_machine + 20 x_freezers <= 5000
  c2: 90 x_washing_machine + 125 x_freezers <= 20000
Integer
  x_washing_machine x_freezers
End